11 8
49 19
1 14 3 3
20 7 2 5
19 5 1 1
3 4 1 3
4 5 3 4
20 6 3 5
11 1 2 4
12 12 3 1
7 18 2 2
8 2 1 3
17 17 2 5
1 11 3 4
18 14 1 5
3 10 2 2
12 10 2 2
1 20 1 4
7 4 3 4
10 12 1 2
7 5 1 3
2 14 1 1
5 12 2 2
2 19 2 5
14 5 1 4
11 20 3 3
10 18 2 4
1 13 1 2
15 12 3 3
18 6 2 2
9 8 3 5
9 10 2 2
3 19 2 5
19 8 3 4
2 17 1 2
1 14 3 4
18 5 3 1
1 16 3 2
18 2 1 4
10 11 2 1
2 10 3 3
17 3 1 4
5 3 3 5
4 8 1 4
16 19 1 2
4 7 1 4
10 17 1 4
5 14 1 5
2 8 1 3
17 8 1 5
2 19 2 4
